3 24 1 10
3 5 14 9 20 2 4 19 1 1 15 18 8 4 11 2 2 19 4 6 14 7 13 7 
13.65 5.16 15.41 15.35 5.75 8.9 9.92 5.75 7.16 2.31 8.09 9.88 6.26 8.73 15.64 8.02 9.98 15.27 2.27 11.43 11.16 2.73 15.45 10.58 
8 8 8 8 8 8 8 8 8 8 8 8 8 8 8 8 8 8 8 8 8 8 8 8 
14.32 9.26 8.93 4.55 0.24 13.48 12.89 7.18 14.91 13.86 11.74 7.73 6.86 2.62 6.09 4.75 11.91 10.17 1.73 3.55 12.56 12.68 7.98 2.01 
1 1 1 1 1 1 1 1 1 1 1 1 1 1 1 1 1 1 1 1 1 1 1 1 
1 1 1 1 1 1 1 1 1 1 1 1 1 1 1 1 1 1 1 1 1 1 1 1 
1 1 1 1 1 1 1 1 1 1 1 1 1 1 1 1 1 1 1 1 1 1 1 1 
0.01 0.01 0.01 0.01 0.01 0.01 0.01 0.01 0.01 0.01 0.01 0.01 0.01 0.01 0.01 0.01 0.01 0.01 0.01 0.01 0.01 0.01 0.01 0.01 
0.02 0.02 0.02 0.02 0.02 0.02 0.02 0.02 0.02 0.02 0.02 0.02 0.02 0.02 0.02 0.02 0.02 0.02 0.02 0.02 0.02 0.02 0.02 0.02 
1 1 1 1 1 1 1 1 1 1 1 1 1 1 1 1 1 1 1 1 1 1 1 1 
